20 380
0 1 33.2
0 2 61.0
0 3 72.2
0 4 49.8
0 5 81.6
0 6 47.6
0 7 78.6
0 8 67.2
0 9 22.3
0 10 43.6
0 11 43.7
0 12 72.8
0 13 22.4
0 14 60.3
0 15 48.5
0 16 50.8
0 17 39.3
0 18 84.2
0 19 62.3
1 2 28.7
1 3 39.5
1 4 43.9
1 5 53.7
1 6 16.5
1 7 47.6
1 8 34.1
1 9 10.9
1 10 25.7
1 11 28.2
1 12 43.5
1 13 18.6
1 14 27.4
1 15 26.5
1 16 19.8
1 17 15.5
1 18 54.9
1 19 44.6
2 3 22.3
2 4 48.5
2 5 29.1
2 6 13.6
2 7 35.4
2 8 8.8
2 9 39.3
2 10 29.5
2 11 46.5
2 12 37.1
2 13 41.3
2 14 15.9
2 15 39.7
2 16 10.7
2 17 24.5
2 18 28.3
2 19 36.5
3 4 70.2
3 5 45.2
3 6 31.4
3 7 13.4
3 8 14.3
3 9 50.1
3 10 50.4
3 11 42.6
3 12 17.5
3 13 56.8
3 14 12.1
3 15 34.0
3 16 30.0
3 17 43.0
3 18 41.8
3 19 58.6
4 5 48.9
4 6 39.9
4 7 82.5
4 8 57.3
4 9 43.6
4 10 20.3
4 11 71.8
4 12 81.8
4 13 31.7
4 14 60.4
4 15 70.3
4 16 40.4
4 17 30.2
4 18 54.1
4 19 20.2
5 6 37.4
5 7 58.0
5 8 32.2
5 9 62.5
5 10 39.4
5 11 75.4
5 12 62.5
5 13 59.3
5 14 44.0
5 15 68.8
5 16 34.3
5 17 42.4
5 18 6.0
5 19 29.0
6 7 42.9
6 8 21.1
6 9 26.3
6 10 19.6
6 11 40.1
6 12 41.9
6 13 27.7
6 14 20.7
6 15 35.2
6 16 3.3
6 17 11.7
6 18 38.4
6 19 33.4
7 8 27.7
7 9 57.4
7 10 62.4
7 11 42.4
7 12 8.7
7 13 65.9
7 14 22.3
7 15 34.1
7 16 42.1
7 17 54.0
7 18 54.2
7 19 71.8
8 9 45.0
8 10 38.3
8 11 46.7
8 12 30.7
8 13 48.7
8 14 12.5
8 15 39.0
8 16 18.8
8 17 32.6
8 18 29.8
8 19 44.5
9 10 29.1
9 11 29.9
9 12 52.5
9 13 12.8
9 14 38.1
9 15 31.3
9 16 29.6
9 17 20.9
9 18 64.3
9 19 49.0
10 11 53.8
10 12 61.4
10 13 21.2
10 14 40.2
10 15 51.2
10 16 20.4
10 17 10.5
10 18 43.1
10 19 20.0
11 12 34.5
11 13 42.7
11 14 34.5
11 15 8.6
11 16 42.5
11 17 43.4
11 18 74.8
11 19 72.1
12 13 62.2
12 14 21.8
12 15 26.4
12 16 41.8
12 17 52.2
12 18 59.3
12 19 73.1
13 14 44.8
13 15 43.5
13 16 30.6
13 17 17.6
13 18 62.2
13 19 40.6
14 15 26.6
14 16 20.1
14 17 31.8
14 18 42.1
14 19 51.3
15 16 37.2
15 17 40.7
15 18 67.8
15 19 68.3
16 17 13.9
16 18 35.2
16 19 32.2
17 18 44.9
17 19 29.2
18 19 34.5
